p edge 40 83 10
v 3 5 15 31
v 2 6 29
v 7 2 7 11 12 19 33 39
v 4 10 16 17 24
v 2 20 25
v 5 1 3 8 13 36
v 2 4 18
v 5 14 23 34 37 38
v 4 27 28 30 35
v 6 9 21 22 26 32 40
e 1 16
e 1 20
e 1 24
e 1 30
e 1 38
e 1 40
e 2 8
e 2 11
e 2 14
e 2 24
e 2 28
e 2 31
e 3 12
e 3 17
e 3 23
e 3 24
e 4 10
e 4 19
e 4 23
e 4 34
e 4 38
e 4 40
e 5 26
e 5 30
e 5 33
e 6 23
e 6 33
e 6 40
e 7 8
e 7 9
e 7 13
e 7 23
e 7 26
e 7 28
e 8 32
e 9 20
e 9 36
e 9 40
e 10 12
e 10 13
e 10 21
e 10 24
e 10 38
e 11 13
e 11 24
e 11 27
e 11 34
e 12 22
e 12 31
e 13 21
e 13 28
e 14 19
e 14 28
e 15 19
e 15 25
e 15 31
e 15 33
e 15 34
e 16 34
e 17 30
e 17 40
e 18 23
e 18 31
e 19 36
e 19 37
e 20 22
e 20 31
e 21 37
e 23 33
e 23 39
e 24 27
e 25 38
e 26 36
e 26 38
e 29 32
e 30 32
e 30 36
e 33 38
e 33 39
e 33 40
e 34 35
e 34 39
e 38 39
